10
0, 186, 524, 343, 152, 324, 162, 383, 207, 963
186, 0, 445, 302, 263, 266, 300, 199, 387, 778
524, 445, 0, 745, 667, 200, 687, 398, 705, 824
343, 302, 745, 0, 247, 568, 290, 405, 426, 833
152, 263, 667, 247, 0, 468, 48, 453, 182, 996
324, 266, 200, 568, 468, 0, 486, 298, 508, 841
162, 300, 687, 290, 48, 486, 0, 495, 135, 1044
383, 199, 398, 405, 453, 298, 495, 0, 587, 588
207, 387, 705, 426, 182, 508, 135, 587, 0, 1156
963, 778, 824, 833, 996, 841, 1044, 588, 1156, 0
